
;this file is automatically generated: Fri Jan 03 16:26:56 GMT 2020

;declarations generated

(declare-fun oclExcludes ( Int Int) Bool)
(declare-fun Cardinality ( Int) Int)
(declare-fun class15_Class15IntAttr5 ( Int) Int)
(declare-fun class15_Class15IntAttr6 ( Int) Int)
(declare-fun obj_7e7848a1_dd97_46b9_b82e_e4903926a80a ( Int) Int)
(declare-fun class15_Class15IntAttr4 ( Int) Int)
(declare-fun oclSelect ( Int Bool) Int)
(declare-fun Enum0 ( Int) Int)
(declare-fun Enum1 ( Int) Int)
(declare-fun Enum2 ( Int) Int)
(declare-fun container_ ( Int) Int)
(declare-fun type_30e2ca5c_3876_4884_a0ce_6401dd07cf8e_Class15 ( Int) Bool)
(declare-fun oclIncludes ( Int Int) Bool)
(declare-fun ObjAt ( Int Int) Int)

;formula(s) generated
(assert (forall ((p Int)) (=> ( type_30e2ca5c_3876_4884_a0ce_6401dd07cf8e_Class15 p )  (and (>= ( Enum0 ( obj_7e7848a1_dd97_46b9_b82e_e4903926a80a p )  )  0) (<= ( Enum0 ( obj_7e7848a1_dd97_46b9_b82e_e4903926a80a p )  )  4)))))
(assert (! (or (forall ((c5_2 Int)(c5_1 Int)) (=> (and ( type_30e2ca5c_3876_4884_a0ce_6401dd07cf8e_Class15 c5_1 )  ( type_30e2ca5c_3876_4884_a0ce_6401dd07cf8e_Class15 c5_2 ) ) (< ( class15_Class15IntAttr6 ( obj_7e7848a1_dd97_46b9_b82e_e4903926a80a c5_1 )  )  ( class15_Class15IntAttr4 ( obj_7e7848a1_dd97_46b9_b82e_e4903926a80a c5_2 )  ) ))) (forall ((v Int)) (=> ( type_30e2ca5c_3876_4884_a0ce_6401dd07cf8e_Class15 v )  (not (= ( class15_Class15IntAttr4 ( obj_7e7848a1_dd97_46b9_b82e_e4903926a80a v )  )  2) )))):named l0))
(assert (! (or (forall ((v Int)) (=> ( type_30e2ca5c_3876_4884_a0ce_6401dd07cf8e_Class15 v )  (< ( class15_Class15IntAttr6 ( obj_7e7848a1_dd97_46b9_b82e_e4903926a80a v )  )  11))) (forall ((v Int)) (=> ( type_30e2ca5c_3876_4884_a0ce_6401dd07cf8e_Class15 v )  (= ( class15_Class15IntAttr4 ( obj_7e7848a1_dd97_46b9_b82e_e4903926a80a v )  )  11)))):named l1))
(assert (! (exists ((c1 Int)) (and ( type_30e2ca5c_3876_4884_a0ce_6401dd07cf8e_Class15 c1 )  (>= ( class15_Class15IntAttr4 ( obj_7e7848a1_dd97_46b9_b82e_e4903926a80a c1 )  )  15))):named l2))
(assert (! (forall ((c1 Int)) (=> ( type_30e2ca5c_3876_4884_a0ce_6401dd07cf8e_Class15 c1 )  (< ( class15_Class15IntAttr4 ( obj_7e7848a1_dd97_46b9_b82e_e4903926a80a c1 )  )  11))):named l3))
(assert (! (forall ((c5_2 Int)(c5_1 Int)) (=> (and ( type_30e2ca5c_3876_4884_a0ce_6401dd07cf8e_Class15 c5_1 )  ( type_30e2ca5c_3876_4884_a0ce_6401dd07cf8e_Class15 c5_2 ) ) (or (< ( class15_Class15IntAttr6 ( obj_7e7848a1_dd97_46b9_b82e_e4903926a80a c5_1 )  )  ( class15_Class15IntAttr5 ( obj_7e7848a1_dd97_46b9_b82e_e4903926a80a c5_2 )  ) ) (or (forall ((c5_2 Int)(c5_1 Int)) (=> (and ( type_30e2ca5c_3876_4884_a0ce_6401dd07cf8e_Class15 c5_1 )  ( type_30e2ca5c_3876_4884_a0ce_6401dd07cf8e_Class15 c5_2 ) ) (not (= ( class15_Class15IntAttr4 ( obj_7e7848a1_dd97_46b9_b82e_e4903926a80a c5_1 )  )  ( class15_Class15IntAttr6 ( obj_7e7848a1_dd97_46b9_b82e_e4903926a80a c5_2 )  ) ) ))) (forall ((v Int)) (=> ( type_30e2ca5c_3876_4884_a0ce_6401dd07cf8e_Class15 v )  (not (= ( Enum0 ( obj_7e7848a1_dd97_46b9_b82e_e4903926a80a v )  )  0) ))))))):named l4))
(assert (! (forall ((c5_2 Int)(c5_1 Int)) (=> (and ( type_30e2ca5c_3876_4884_a0ce_6401dd07cf8e_Class15 c5_1 )  ( type_30e2ca5c_3876_4884_a0ce_6401dd07cf8e_Class15 c5_2 ) ) (not (= ( class15_Class15IntAttr4 ( obj_7e7848a1_dd97_46b9_b82e_e4903926a80a c5_1 )  )  ( class15_Class15IntAttr5 ( obj_7e7848a1_dd97_46b9_b82e_e4903926a80a c5_2 )  ) ) ))):named l5))
(assert (exists ((o Int)) ( type_30e2ca5c_3876_4884_a0ce_6401dd07cf8e_Class15 ( obj_7e7848a1_dd97_46b9_b82e_e4903926a80a o )  ) ))

 ;end of formula 